(set-info :origin "driver benchmark extracted from Microsoft SDV")
(set-logic HORN)
(declare-fun Proc7 (Int Bool Int Int Int Int) Bool)
(declare-fun Proc4 (Int Bool Int) Bool)
(declare-fun Proc29 (Int Bool) Bool)
(declare-fun Proc22 (Int Bool) Bool)
(declare-fun Proc11 (Int Bool Int Int) Bool)
(declare-fun Proc9 (Int Bool Int Int Int Int Int) Bool)
(declare-fun Proc24 (Int Bool Int) Bool)
(declare-fun Proc27 (Int Bool Int) Bool)
(declare-fun Proc23 (Int Bool Int Int Int) Bool)
(declare-fun Proc14 (Int Bool) Bool)
(declare-fun Proc26 (Int Bool Int Int) Bool)
(declare-fun Proc2 (Int Bool) Bool)
(declare-fun Proc3 (Int Bool Int Int Int) Bool)
(declare-fun Proc1 (Int Bool Int Int Int Int) Bool)
(declare-fun Proc30 (Int Bool Int Bool Int) Bool)
(declare-fun Proc5 (Int Bool Int) Bool)
(declare-fun Proc6 (Int Bool Int Int Int Int) Bool)
(declare-fun Proc28 (Int Bool Int Int Int Int) Bool)
(declare-fun Proc15 (Int Bool) Bool)
(declare-fun Proc0 (Int Bool Int Int) Bool)
(declare-fun Proc8 (Int Bool Int Int) Bool)
(declare-fun Proc17 (Int Bool Int) Bool)
(declare-fun Proc19 (Int Bool Int) Bool)
(declare-fun Proc25 (Int Bool) Bool)
(declare-fun Proc12 (Int Bool) Bool)
(declare-fun Proc21 (Int Bool) Bool)
(declare-fun Proc20 (Int Bool Int Int) Bool)
(declare-fun Proc18 (Int Bool Int Bool Int) Bool)
(declare-fun Proc10 (Int Bool Int) Bool)
(declare-fun Proc13 (Int Bool) Bool)
(declare-fun Proc16 (Int Bool Int) Bool)
(assert (forall ((A Int)
         (B Int)
         (C Int)
         (D Int)
         (E Int)
         (F Int)
         (G Int)
         (H Int)
         (I Int)
         (J Int)
         (K Int)
         (L Int)
         (M Int)
         (N Int)
         (O Int)
         (P Int)
         (Q Bool))
  (let ((a!1 (and (not (<= N (+ 24 P))) (not (<= N O))))
        (a!2 (and (not (<= L (+ 1 M))) (not (<= L N))))
        (a!3 (and (not (<= J (+ 1 K))) (not (<= J L)))))
  (let ((a!4 (or (not Q)
                 (not (= P O))
                 (not a!1)
                 (not (= M N))
                 (not a!2)
                 (not (= K L))
                 (not a!3)
                 (<= I 27)
                 (= H 0)
                 (= G 0)
                 (= F 0)
                 (not (Proc0 J Q P 20))
                 (not (= E D))
                 (not (and (= C E) (= B J))))))
    (=> (not a!4) (Proc1 O Q H A C B))))))
(assert (forall ((A Int) (B Int) (C Int) (D Int) (Q Bool))
  (let ((a!1 (not (or (not Q) (not (Proc2 D Q)) (= C 0) (not (= B 0))))))
    (=> a!1 (Proc3 D Q A C B)))))
(assert (forall ((A Int)
         (B Int)
         (C Int)
         (D Int)
         (E Int)
         (F Int)
         (G Int)
         (H Int)
         (I Int)
         (Q Bool))
  (let ((a!1 (or (not Q)
                 (not (Proc4 I Q H))
                 (not (Proc5 I Q H))
                 (= G 0)
                 (= F 0)
                 (not (Proc6 I Q E H D C))
                 (not (and (= B D) (= A C))))))
    (=> (not a!1) (Proc7 I Q G H B A)))))
(assert (forall ((A Int)
         (B Int)
         (C Int)
         (D Int)
         (E Int)
         (F Int)
         (G Int)
         (H Int)
         (I Int)
         (J Int)
         (K Int)
         (L Int)
         (M Int)
         (N Int)
         (O Int)
         (P Int)
         (Q Bool)
         (R Int)
         (S Int)
         (T Int)
         (U Int)
         (V Int)
         (W Int)
         (X Int)
         (Y Int))
  (let ((a!1 (and (not (<= W (+ 4 Y))) (not (<= W X))))
        (a!2 (and (not (<= U (+ 1 V))) (not (<= U W))))
        (a!3 (or (not (= S R)) (not (and (= P S) (= O T)))))
        (a!4 (or (not (Proc9 T Q M N L Y K))
                 (not (= S 259))
                 (not (and (= P S) (= O T)))))
        (a!5 (or (not (= S 259)) (not (and (= P S) (= O T)))))
        (a!6 (or (not (Proc9 T Q J N I Y H))
                 (not (= S 259))
                 (not (and (= P S) (= O T)))))
        (a!7 (or (not (Proc9 T Q G N F Y E))
                 (not (= S 259))
                 (not (and (= P S) (= O T)))))
        (a!8 (or (not (Proc9 T Q D N C Y B))
                 (not (= S 259))
                 (not (and (= P S) (= O T))))))
  (let ((a!9 (or (not Q)
                 (not (= Y X))
                 (not a!1)
                 (not (= V W))
                 (not a!2)
                 (not (Proc8 U Q V T))
                 (and a!3
                      (or (= N 0) (and a!4 a!5))
                      (or (= N 0) (and a!6 a!5))
                      (or (= N 0) (and a!7 a!5))
                      (or (= N 0) (and a!8 a!5))))))
    (=> (not a!9) (Proc6 X Q A N P O))))))
(assert (forall ((A Int) (B Int) (Q Bool)) (=> Q (Proc4 B Q A))))
(assert (forall ((A Int) (B Int) (C Int) (D Int) (E Int) (Q Bool))
  (let ((a!1 (and (not (<= C (+ 1 E))) (not (<= C D)))))
  (let ((a!2 (not (or (not Q)
                      (not (= E D))
                      (not a!1)
                      (not (Proc10 C Q E))
                      (not (= B C))))))
    (=> a!2 (Proc11 D Q A B))))))
(assert (forall ((A Int) (B Int) (Q Bool)) (=> Q (Proc10 B Q A))))
(assert (forall ((A Int) (B Int) (C Int) (D Int) (E Int) (Q Bool))
  (let ((a!1 (and (or (not (= E D)) (not (= C E)))
                  (or (not (Proc11 D Q B A)) (not (= E A)) (not (= C E))))))
    (=> (not (or (not Q) a!1)) (Proc8 D Q B C)))))
(assert (forall ((A Int) (Q Bool)) (=> false (Proc12 A Q))))
(assert (forall ((A Int) (Q Bool)) (=> Q (Proc13 A Q))))
(assert (forall ((A Int) (Q Bool)) (=> Q (Proc14 A Q))))
(assert (forall ((A Int) (Q Bool)) (=> Q (Proc15 A Q))))
(assert (forall ((A Int)
         (B Int)
         (C Int)
         (D Int)
         (E Int)
         (F Int)
         (G Int)
         (H Int)
         (Q Bool)
         (Z Bool)
         (A1 Bool)
         (B1 Bool))
  (let ((a!1 (not (and (not (<= H 0)) (Proc16 H B1 G))))
        (a!2 (not (and (= C E) (= Z A1) (= B F)))))
  (let ((a!3 (or (not (and (= E D) (not A1))) a!2))
        (a!4 (or (= (not Q) B1) (not (and (= E A) (= A1 Q))) a!2)))
  (let ((a!5 (not (or (not B1)
                      a!1
                      (not (Proc15 G B1))
                      (not (Proc14 G B1))
                      (not (Proc13 G B1))
                      (not (Proc17 G B1 F))
                      (and a!3 a!4)))))
    (=> a!5 (Proc18 H B1 C Z B)))))))
(assert (forall ((A Int) (B Int) (C Int) (Q Bool))
  (let ((a!1 (or (not Q) (not (= C (- 1073741823))) (not (= B C)))))
    (=> (not a!1) (Proc19 A Q B)))))
(assert (forall ((A Int) (B Int) (Q Bool)) (=> Q (Proc5 B Q A))))
(assert (forall ((A Int) (B Int) (C Int) (D Int) (E Int) (F Int) (G Int) (Q Bool))
  (let ((a!1 (and (or (not (= G F)) (not (= E G)))
                  (or (not (= G D)) (not (= E G)))
                  (or (not (= G C)) (not (= E G))))))
    (=> (not (or (not Q) a!1)) (Proc20 B Q A E)))))
(assert (forall ((A Int) (B Int) (C Int) (Q Bool)) (=> Q (Proc0 C Q B A))))
(assert (forall ((A Int) (B Int) (C Int) (D Int) (E Int) (Q Bool))
  (let ((a!1 (not (or (not Q)
                      (not (Proc21 E Q))
                      (not (Proc3 E Q D C B))
                      (not (Proc22 E Q))
                      (not (= A B))))))
    (=> a!1 (Proc23 E Q D C A)))))
(assert (forall ((A Int)
         (B Int)
         (C Int)
         (D Int)
         (E Int)
         (F Int)
         (G Int)
         (H Int)
         (I Int)
         (J Int)
         (K Int)
         (L Int)
         (M Int)
         (N Int)
         (O Int)
         (P Int)
         (Q Bool)
         (R Int)
         (S Int)
         (T Int)
         (U Int)
         (V Int)
         (W Int)
         (X Int)
         (Y Int)
         (C1 Int)
         (D1 Int)
         (E1 Int)
         (F1 Int)
         (G1 Int)
         (H1 Int)
         (I1 Int))
  (let ((a!1 (or (= G1 0)
                 (not (Proc19 H1 Q F1))
                 (not (and (= E1 F1) (= D1 H1)))
                 (not (Proc26 D1 Q E1 I1))
                 (= I1 0)
                 (not (and (= C1 D1) (= Y E1)))
                 (not (and (= X Y) (= W C1)))))
        (a!2 (or (= G1 0)
                 (not (Proc19 H1 Q V))
                 (not (and (= E1 V) (= D1 H1)))
                 (not (Proc26 D1 Q E1 I1))
                 (= I1 0)
                 (not (and (= C1 D1) (= Y E1)))
                 (not (and (= X Y) (= W C1)))))
        (a!3 (or (= G1 0)
                 (not (Proc19 H1 Q U))
                 (not (and (= E1 U) (= D1 H1)))
                 (not (Proc26 D1 Q E1 I1))
                 (= I1 0)
                 (not (and (= C1 D1) (= Y E1)))
                 (not (and (= X Y) (= W C1)))))
        (a!4 (or (= G1 0)
                 (not (Proc19 H1 Q T))
                 (not (and (= E1 T) (= D1 H1)))
                 (not (Proc26 D1 Q E1 I1))
                 (= I1 0)
                 (not (and (= C1 D1) (= Y E1)))
                 (not (and (= X Y) (= W C1)))))
        (a!5 (or (= G1 0)
                 (not (Proc19 H1 Q S))
                 (not (and (= E1 S) (= D1 H1)))
                 (not (Proc26 D1 Q E1 I1))
                 (= I1 0)
                 (not (and (= C1 D1) (= Y E1)))
                 (not (and (= X Y) (= W C1)))))
        (a!6 (or (= G1 0)
                 (not (Proc19 H1 Q R))
                 (not (and (= E1 R) (= D1 H1)))
                 (not (Proc26 D1 Q E1 I1))
                 (= I1 0)
                 (not (and (= C1 D1) (= Y E1)))
                 (not (and (= X Y) (= W C1)))))
        (a!7 (or (= G1 0)
                 (not (Proc19 H1 Q P))
                 (not (and (= E1 P) (= D1 H1)))
                 (not (Proc26 D1 Q E1 I1))
                 (= I1 0)
                 (not (and (= C1 D1) (= Y E1)))
                 (not (and (= X Y) (= W C1)))))
        (a!8 (or (not (Proc19 H1 Q O))
                 (not (and (= E1 O) (= D1 H1)))
                 (not (Proc26 D1 Q E1 I1))
                 (= I1 0)
                 (not (and (= C1 D1) (= Y E1)))
                 (not (and (= X Y) (= W C1)))))
        (a!9 (or (= G1 0)
                 (not (Proc19 H1 Q N))
                 (not (and (= E1 N) (= D1 H1)))
                 (not (Proc26 D1 Q E1 I1))
                 (= I1 0)
                 (not (and (= C1 D1) (= Y E1)))
                 (not (and (= X Y) (= W C1)))))
        (a!10 (or (= G1 0)
                  (not (Proc19 H1 Q M))
                  (not (and (= E1 M) (= D1 H1)))
                  (not (Proc26 D1 Q E1 I1))
                  (= I1 0)
                  (not (and (= C1 D1) (= Y E1)))
                  (not (and (= X Y) (= W C1)))))
        (a!11 (or (= G1 0)
                  (not (Proc19 H1 Q L))
                  (not (and (= E1 L) (= D1 H1)))
                  (not (Proc26 D1 Q E1 I1))
                  (= I1 0)
                  (not (and (= C1 D1) (= Y E1)))
                  (not (and (= X Y) (= W C1)))))
        (a!12 (or (not (Proc19 H1 Q K))
                  (not (and (= E1 K) (= D1 H1)))
                  (not (Proc26 D1 Q E1 I1))
                  (= I1 0)
                  (not (and (= C1 D1) (= Y E1)))
                  (not (and (= X Y) (= W C1)))))
        (a!13 (or (= G1 0)
                  (not (Proc19 H1 Q J))
                  (not (and (= E1 J) (= D1 H1)))
                  (not (Proc26 D1 Q E1 I1))
                  (= I1 0)
                  (not (and (= C1 D1) (= Y E1)))
                  (not (and (= X Y) (= W C1)))))
        (a!14 (or (not (and (= C1 G) (= Y F))) (not (and (= X Y) (= W C1)))))
        (a!15 (or (not (and (= E1 H) (= D1 G)))
                  (not (Proc26 D1 Q E1 I1))
                  (= I1 0)
                  (not (and (= C1 D1) (= Y E1)))
                  (not (and (= X Y) (= W C1)))))
        (a!16 (or (= G1 0)
                  (not (Proc19 H1 Q E))
                  (not (and (= E1 E) (= D1 H1)))
                  (not (Proc26 D1 Q E1 I1))
                  (= I1 0)
                  (not (and (= C1 D1) (= Y E1)))
                  (not (and (= X Y) (= W C1)))))
        (a!17 (or (not (Proc19 H1 Q D))
                  (not (and (= E1 D) (= D1 H1)))
                  (not (Proc26 D1 Q E1 I1))
                  (= I1 0)
                  (not (and (= C1 D1) (= Y E1)))
                  (not (and (= X Y) (= W C1)))))
        (a!18 (or (not (Proc19 H1 Q C))
                  (not (and (= E1 C) (= D1 H1)))
                  (not (Proc26 D1 Q E1 I1))
                  (= I1 0)
                  (not (and (= C1 D1) (= Y E1)))
                  (not (and (= X Y) (= W C1)))))
        (a!19 (or (not (Proc12 H1 Q))
                  (not (Proc19 H1 Q C))
                  (not (and (= E1 C) (= D1 H1)))
                  (not (Proc26 D1 Q E1 I1))
                  (= I1 0)
                  (not (and (= C1 D1) (= Y E1)))
                  (not (and (= X Y) (= W C1))))))
  (let ((a!20 (and (or (= G1 0) (and a!18 a!19))
                   (or (not (= B 1)) (= B 0) (= G1 0) (and a!18 a!19)))))
  (let ((a!21 (and (or (= G1 0) a!20) (or (not (= A 1)) (= A 0) (= G1 0) a!20))))
  (let ((a!22 (and a!1
                   a!2
                   a!3
                   a!4
                   a!5
                   a!6
                   a!7
                   a!8
                   a!9
                   a!10
                   a!11
                   a!12
                   a!13
                   (or (= G1 0)
                       (not (Proc27 H1 Q I1))
                       (not (Proc7 H1 Q I I1 H G))
                       (and a!14 a!15))
                   a!16
                   a!17
                   (or (= G1 0) a!21))))
  (let ((a!23 (not (or (not Q)
                       (= I1 0)
                       (not (Proc24 H1 Q I1))
                       (= G1 0)
                       (not (Proc25 H1 Q))
                       a!22))))
    (=> a!23 (Proc28 H1 Q I I1 X W)))))))))
(assert (forall ((A Int) (B Int) (C Int) (D Int) (E Int) (F Int) (G Int) (Q Bool))
  (let ((a!1 (not (or (not Q) (not (Proc20 G Q F E)) (not (= D 0))))))
    (=> a!1 (Proc9 G Q C F B A D)))))
(assert (forall ((A Int) (B Int) (C Int) (Q Bool))
  (=> (not (or (not Q) (= C 0) (= B 0))) (Proc27 A Q C))))
(assert (forall ((A Int) (B Int) (Q Bool))
  (=> (not (or (not Q) (= B 0))) (Proc24 A Q B))))
(assert (forall ((A Int) (Q Bool)) (=> Q (Proc2 A Q))))
(assert (forall ((A Int)
         (B Int)
         (C Int)
         (D Int)
         (E Int)
         (F Int)
         (G Int)
         (H Int)
         (I Int)
         (J Int)
         (K Int)
         (L Int)
         (M Int)
         (N Int)
         (O Int)
         (P Int)
         (Q Bool))
  (let ((a!1 (and (not (<= N (+ 12 P))) (not (<= N O)))))
  (let ((a!2 (not (or (not Q)
                      (not (= P O))
                      (not a!1)
                      (not (Proc1 N Q M P L K))
                      (not (<= 0 L))
                      (not (= J 1))
                      (= J 0)
                      (not (Proc23 K Q I H G))
                      (not (<= 0 G))
                      (not (= F 1))
                      (= F 0)
                      (not (Proc29 K Q))
                      (not (Proc28 K Q E D C B))
                      (not (= A B))))))
    (=> a!2 (Proc17 O Q A))))))
(assert (forall ((A Int) (Q Bool)) (=> Q (Proc21 A Q))))
(assert (forall ((A Int) (Q Bool)) (=> Q (Proc22 A Q))))
(assert (forall ((A Int) (Q Bool)) (=> Q (Proc25 A Q))))
(assert (forall ((A Int) (B Int) (C Int) (Q Bool)) (=> Q (Proc26 C Q B A))))
(assert (forall ((A Int) (Q Bool)) (=> Q (Proc29 A Q))))
(assert (forall ((A Int)
         (B Int)
         (C Int)
         (D Int)
         (E Int)
         (F Int)
         (G Int)
         (H Int)
         (I Int)
         (J Int)
         (K Int)
         (L Int)
         (M Int)
         (N Int)
         (O Int)
         (P Int)
         (Q Bool)
         (R Int)
         (S Int)
         (T Int)
         (U Int)
         (V Int)
         (W Int)
         (X Int)
         (Y Int)
         (C1 Int)
         (D1 Int)
         (E1 Int)
         (F1 Int)
         (G1 Int)
         (H1 Int)
         (I1 Int)
         (J1 Int)
         (K1 Int)
         (L1 Int)
         (M1 Int)
         (N1 Int)
         (O1 Int)
         (P1 Int)
         (Q1 Int)
         (R1 Int)
         (S1 Int)
         (T1 Int)
         (U1 Int)
         (V1 Int)
         (W1 Int)
         (X1 Int)
         (Y1 Int)
         (Z1 Int)
         (A2 Int)
         (B2 Int)
         (C2 Int)
         (D2 Int)
         (E2 Int)
         (F2 Int))
  (let ((a!1 (and (= F2 E2) (not (<= D2 (+ 4 F2)))))
        (a!2 (and (not (<= D2 E2))
                  (= C2 D2)
                  (not (<= B2 (+ 332 C2)))
                  (not (<= B2 D2))))
        (a!3 (and (= A2 B2)
                  (not (<= Z1 (+ 4 A2)))
                  (not (<= Z1 B2))
                  (= Y1 Z1)
                  (not (<= X1 (+ 536 Y1)))
                  (not (<= X1 Z1))
                  (= W1 X1)
                  (not (<= V1 (+ 240 W1)))))
        (a!4 (and (not (<= V1 X1))
                  (= U1 V1)
                  (not (<= T1 (+ 240 U1)))
                  (not (<= T1 V1))
                  (= S1 T1)
                  (not (<= R1 (+ 536 S1)))
                  (not (<= R1 T1))
                  (= Q1 R1)
                  (not (<= P1 (+ 240 Q1)))
                  (not (<= P1 R1))
                  (= O1 P1)
                  (not (<= N1 (+ 4 O1)))
                  (not (<= N1 P1))
                  (= M1 N1)
                  (not (<= L1 (+ 536 M1)))
                  (not (<= L1 N1))
                  (= K1 L1)
                  (not (<= J1 (+ 332 K1)))
                  (not (<= J1 L1))
                  (= I1 J1)
                  (not (<= H1 (+ 240 I1)))
                  (not (<= H1 J1))
                  (= G1 H1)
                  (not (<= F1 (+ 240 G1)))
                  (not (<= F1 H1))
                  (= E1 F1)
                  (not (<= D1 (+ 332 E1)))
                  (not (<= D1 F1))
                  (= C1 D1)
                  (not (<= Y (+ 4 C1)))
                  (not (<= Y D1))
                  (= X Y)
                  (not (<= W (+ 68 X)))
                  (not (<= W Y))
                  (= V W)
                  (not (<= U (+ 536 V)))
                  (not (<= U W))
                  (= T U)
                  (not (<= S (+ 240 T)))
                  (not (<= S U))
                  (= R S)
                  (not (<= P (+ 240 R)))
                  (not (<= P S))
                  (= O P)
                  (not (<= N (+ 240 O)))
                  (not (<= N P))
                  (= M N)
                  (not (<= L (+ 240 M)))
                  (not (<= L N))
                  (= K L)
                  (not (<= J (+ 240 K)))
                  (not (<= J L))
                  (= I J)
                  (not (<= H (+ 40 I)))
                  (not (<= H J))
                  (= G H)
                  (not (<= F (+ 332 G)))
                  (not (<= F H))
                  (= E F)
                  (not (<= D (+ 4 E)))
                  (not (<= D F))
                  (= C D)
                  (not (<= B (+ 40 C)))
                  (not (<= B D)))))
  (let ((a!5 (not (or (not Q)
                      (not a!1)
                      (not a!2)
                      (not a!3)
                      (not a!4)
                      (not (= A B))))))
    (=> a!5 (Proc16 E2 Q A))))))
(assert (forall ((A Int) (B Int) (C Int) (D Int) (E Int) (Q Bool) (Z Bool) (A1 Bool))
  (let ((a!1 (or (not A1) (not (and (Proc18 E true D Z C) (not Z))))))
    (=> (not a!1) (Proc30 E A1 B Q A)))))
(assert (let ((a!1 (exists ((V0 Int) (V1 Bool) (V2 Int) (V3 Bool) (V4 Int))
             (not (=> (and (Proc30 V0 V1 V2 V3 V4) (not false)) false)))))
  (not a!1)))

(check-sat)
